Maximize

mat_0_0 + mat_0_1 + mat_0_2 + mat_1_0 + mat_1_1 + mat_1_2 + mat_2_0 + mat_2_1 + mat_2_2 + mat_3_0 + mat_3_1 + mat_3_2 + mat_4_0 + mat_4_1 + mat_4_2 + mat_5_0 + mat_5_1 + mat_5_2


Subject To

a0: 20 mat_0_0 + 15 mat_1_0 + 25 mat_2_0 + 12 mat_3_0 + 30 mat_4_0 + 18 mat_5_0 <= 50
a1: 20 mat_0_1 + 15 mat_1_1 + 25 mat_2_1 + 12 mat_3_1 + 30 mat_4_1 + 18 mat_5_1 <= 70
a2: 20 mat_0_2 + 15 mat_1_2 + 25 mat_2_2 + 12 mat_3_2 + 30 mat_4_2 + 18 mat_5_2 <= 100
b0: mat_0_0 + mat_0_1 + mat_0_2 <= 1
b1: mat_1_0 + mat_1_1 + mat_1_2 <= 1
b2: mat_2_0 + mat_2_1 + mat_2_2 <= 1
b3: mat_3_0 + mat_3_1 + mat_3_2 <= 1
b4: mat_4_0 + mat_4_1 + mat_4_2 <= 1
b5: mat_5_0 + mat_5_1 + mat_5_2 <= 1
c0: mat_0_0 + mat_2_0 <= 1
c1: mat_0_1 + mat_2_1 <= 1
c2: mat_0_2 + mat_2_2 <= 1
c3: mat_0_0 + mat_4_0 <= 1
c4: mat_0_1 + mat_4_1 <= 1
c5: mat_0_2 + mat_4_2 <= 1
c6: mat_1_0 + mat_0_0 <= 1
c7: mat_1_1 + mat_0_1 <= 1
c8: mat_1_2 + mat_0_2 <= 1
c9: mat_1_0 + mat_3_0 <= 1
c10: mat_1_1 + mat_3_1 <= 1
c11: mat_1_2 + mat_3_2 <= 1
c12: mat_2_0 + mat_0_0 <= 1
c13: mat_2_1 + mat_0_1 <= 1
c14: mat_2_2 + mat_0_2 <= 1
c15: mat_2_0 + mat_5_0 <= 1
c16: mat_2_1 + mat_5_1 <= 1
c17: mat_2_2 + mat_5_2 <= 1
c18: mat_3_0 + mat_1_0 <= 1
c19: mat_3_1 + mat_1_1 <= 1
c20: mat_3_2 + mat_1_2 <= 1
c21: mat_3_0 + mat_4_0 <= 1
c22: mat_3_1 + mat_4_1 <= 1
c23: mat_3_2 + mat_4_2 <= 1
c24: mat_4_0 + mat_0_0 <= 1
c25: mat_4_1 + mat_0_1 <= 1
c26: mat_4_2 + mat_0_2 <= 1
c27: mat_4_0 + mat_3_0 <= 1
c28: mat_4_1 + mat_3_1 <= 1
c29: mat_4_2 + mat_3_2 <= 1
c30: mat_4_0 + mat_5_0 <= 1
c31: mat_4_1 + mat_5_1 <= 1
c32: mat_4_2 + mat_5_2 <= 1
c33: mat_5_0 + mat_2_0 <= 1
c34: mat_5_1 + mat_2_1 <= 1
c35: mat_5_2 + mat_2_2 <= 1
c36: mat_5_0 + mat_4_0 <= 1
c37: mat_5_1 + mat_4_1 <= 1
c38: mat_5_2 + mat_4_2 <= 1




Binary

mat_0_0 mat_0_1 mat_0_2 mat_1_0 mat_1_1 mat_1_2 mat_2_0 mat_2_1 mat_2_2 mat_3_0 mat_3_1 mat_3_2 mat_4_0 mat_4_1 mat_4_2 mat_5_0 mat_5_1 mat_5_2

 


End
